(set-logic QF_LIA)
(declare-fun x0 () Int)
(declare-fun x1 () Int)
(declare-fun x2 () Int)
(declare-fun x3 () Int)
(declare-fun x4 () Int)
(declare-fun x5 () Int)
(declare-fun x6 () Int)
(declare-fun x7 () Int)
(declare-fun x8 () Int)
(declare-fun x9 () Int)
(declare-fun A0 () Bool)
(declare-fun A1 () Bool)
(declare-fun A2 () Bool)
(declare-fun A3 () Bool)
(declare-fun A4 () Bool)
(declare-fun A6 () Bool)
(declare-fun A7 () Bool)
(declare-fun A8 () Bool)
(assert (let ((.def_0 (* (- 1) x0))) (let ((.def_1 (* (- 1) x2))) (let ((.def_2 (+ .def_1 .def_0))) (let ((.def_3 (< .def_2 (- 1)))) (let ((.def_4 (not .def_3))) (let ((.def_5 (and .def_4 A6))) (let ((.def_6 (* 1 x6))) (let ((.def_7 (* 1 x0))) (let ((.def_8 (+ .def_7 .def_6))) (let ((.def_9 (< .def_8 1))) (let ((.def_10 (* 1 x8))) (let ((.def_11 (+ .def_10 .def_0))) (let ((.def_12 (< .def_11 1))) (let ((.def_13 (not .def_12))) (let ((.def_14 (or .def_13 .def_9))) (let ((.def_15 (or .def_14 .def_5))) (let ((.def_16 (* 1 x1))) (let ((.def_17 (< .def_16 (- 1)))) (let ((.def_18 (not .def_17))) (let ((.def_19 (not A4))) (let ((.def_20 (and .def_19 .def_18))) (let ((.def_21 (* (- 1) x3))) (let ((.def_22 (+ .def_16 .def_21))) (let ((.def_23 (< .def_22 1))) (let ((.def_24 (not .def_23))) (let ((.def_25 (* 1 x4))) (let ((.def_26 (< .def_25 1))) (let ((.def_27 (= .def_26 .def_24))) (let ((.def_28 (= .def_27 .def_20))) (let ((.def_29 (not .def_28))) (let ((.def_30 (or .def_29 .def_15))) (let ((.def_31 (* (- 1) x1))) (let ((.def_32 (+ .def_6 .def_31))) (let ((.def_33 (< .def_32 1))) (let ((.def_34 (< .def_0 1))) (let ((.def_35 (and .def_34 .def_33))) (let ((.def_36 (< .def_6 (- 1)))) (let ((.def_37 (not .def_36))) (let ((.def_38 (* (- 1) x4))) (let ((.def_39 (+ .def_38 .def_31))) (let ((.def_40 (< .def_39 1))) (let ((.def_41 (not .def_40))) (let ((.def_42 (and .def_41 .def_37))) (let ((.def_43 (not .def_42))) (let ((.def_44 (or .def_43 .def_35))) (let ((.def_45 (not A1))) (let ((.def_46 (or .def_19 .def_45))) (let ((.def_47 (not A2))) (let ((.def_48 (or A3 .def_47))) (let ((.def_49 (= .def_48 .def_46))) (let ((.def_50 (not .def_49))) (let ((.def_51 (or .def_50 .def_44))) (let ((.def_52 (not .def_51))) (let ((.def_53 (and .def_52 .def_30))) (let ((.def_54 (* (- 1) x9))) (let ((.def_55 (< .def_54 1))) (let ((.def_56 (= .def_55 A1))) (let ((.def_57 (< .def_31 1))) (let ((.def_58 (not .def_57))) (let ((.def_59 (* 1 x2))) (let ((.def_60 (+ .def_0 .def_59))) (let ((.def_61 (< .def_60 1))) (let ((.def_62 (and .def_61 .def_58))) (let ((.def_63 (or .def_62 .def_56))) (let ((.def_64 (< .def_31 (- 1)))) (let ((.def_65 (not .def_64))) (let ((.def_66 (+ .def_31 .def_25))) (let ((.def_67 (< .def_66 1))) (let ((.def_68 (or .def_67 .def_65))) (let ((.def_69 (not .def_68))) (let ((.def_70 (or .def_45 A1))) (let ((.def_71 (or .def_70 .def_69))) (let ((.def_72 (not .def_71))) (let ((.def_73 (and .def_72 .def_63))) (let ((.def_74 (not .def_73))) (let ((.def_75 (* 1 x9))) (let ((.def_76 (* 1 x5))) (let ((.def_77 (+ .def_76 .def_75))) (let ((.def_78 (< .def_77 (- 1)))) (let ((.def_79 (not .def_78))) (let ((.def_80 (not A7))) (let ((.def_81 (= .def_80 .def_79))) (let ((.def_82 (not A8))) (let ((.def_83 (= A1 .def_82))) (let ((.def_84 (or .def_83 .def_81))) (let ((.def_85 (+ .def_25 .def_75))) (let ((.def_86 (< .def_85 (- 1)))) (let ((.def_87 (= .def_86 .def_19))) (let ((.def_88 (not .def_87))) (let ((.def_89 (+ .def_16 .def_25))) (let ((.def_90 (< .def_89 1))) (let ((.def_91 (not .def_90))) (let ((.def_92 (or .def_91 A0))) (let ((.def_93 (not .def_92))) (let ((.def_94 (and .def_93 .def_88))) (let ((.def_95 (or .def_94 .def_84))) (let ((.def_96 (= .def_95 .def_74))) (let ((.def_97 (= .def_96 .def_53))) (let ((.def_98 (<= x9 1))) (let ((.def_99 (<= 0 x9))) (let ((.def_100 (<= x8 1))) (let ((.def_101 (<= 0 x8))) (let ((.def_102 (<= x7 1))) (let ((.def_103 (<= 0 x7))) (let ((.def_104 (<= x6 1))) (let ((.def_105 (<= 0 x6))) (let ((.def_106 (<= x5 1))) (let ((.def_107 (<= 0 x5))) (let ((.def_108 (<= x4 1))) (let ((.def_109 (<= 0 x4))) (let ((.def_110 (<= x3 1))) (let ((.def_111 (<= 0 x3))) (let ((.def_112 (<= x2 1))) (let ((.def_113 (<= 0 x2))) (let ((.def_114 (<= x1 1))) (let ((.def_115 (<= 0 x1))) (let ((.def_116 (<= x0 1))) (let ((.def_117 (<= 0 x0))) (let ((.def_118 (and .def_117 .def_116 .def_115 .def_114 .def_113 .def_112 .def_111 .def_110 .def_109 .def_108 .def_107 .def_106 .def_105 .def_104 .def_103 .def_102 .def_101 .def_100 .def_99 .def_98 .def_97))) .def_118))))))))))))))))))))))))))))))))))))))))))))))))))))))))))))))))))))))))))))))))))))))))))))))))))))))))))))))))))))))))
(check-sat)
